BAYES
100
2 2 2 2 2 2 2 2 2 2 2 2 2 2 2 2 2 2 2 2 2 2 2 2 2 2 2 2 2 2 2 2 2 2 2 2 2 2 2 2 2 2 2 2 2 2 2 2 2 2 2 2 2 2 2 2 2 2 2 2 2 2 2 2 2 2 2 2 2 2 2 2 2 2 2 2 2 2 2 2 2 2 2 2 2 2 2 2 2 2 2 2 2 2 2 2 2 2 2 2
100
1 0
2 0 1
2 1 2
2 2 3
2 3 4
2 4 5
2 5 6
2 6 7
2 7 8
2 8 9
2 0 10
3 1 10 11
3 2 11 12
3 3 12 13
3 4 13 14
3 5 14 15
3 6 15 16
3 7 16 17
3 8 17 18
3 9 18 19
2 10 20
3 11 20 21
3 12 21 22
3 13 22 23
3 14 23 24
3 15 24 25
3 16 25 26
3 17 26 27
3 18 27 28
3 19 28 29
2 20 30
3 21 30 31
3 22 31 32
3 23 32 33
3 24 33 34
3 25 34 35
3 26 35 36
3 27 36 37
3 28 37 38
3 29 38 39
2 30 40
3 31 40 41
3 32 41 42
3 33 42 43
3 34 43 44
3 35 44 45
3 36 45 46
3 37 46 47
3 38 47 48
3 39 48 49
2 40 50
3 41 50 51
3 42 51 52
3 43 52 53
3 44 53 54
3 45 54 55
3 46 55 56
3 47 56 57
3 48 57 58
3 49 58 59
2 50 60
3 51 60 61
3 52 61 62
3 53 62 63
3 54 63 64
3 55 64 65
3 56 65 66
3 57 66 67
3 58 67 68
3 59 68 69
2 60 70
3 61 70 71
3 62 71 72
3 63 72 73
3 64 73 74
3 65 74 75
3 66 75 76
3 67 76 77
3 68 77 78
3 69 78 79
2 70 80
3 71 80 81
3 72 81 82
3 73 82 83
3 74 83 84
3 75 84 85
3 76 85 86
3 77 86 87
3 78 87 88
3 79 88 89
2 80 90
3 81 90 91
3 82 91 92
3 83 92 93
3 84 93 94
3 85 94 95
3 86 95 96
3 87 96 97
3 88 97 98
3 89 98 99
2
1 0
4
0 1 1 0
4
1 0 1 0
4
0 1 0 1
4
1 0 1 0
4
1 0 0 1
4
1 0 1 0
4
1 0 0 1
4
0 1 0 1
4
0 1 0 1
4
0 1 1 0
8
0 1 1 0 0 1 0 1
8
1 0 1 0 0 1 0 1
8
1 0 0 1 1 0 0 1
8
0 1 1 0 0 1 1 0
8
0 1 1 0 1 0 0 1
8
1 0 0 1 1 0 0 1
8
1 0 1 0 1 0 0 1
8
0 1 0 1 0 1 0 1
8
1 0 0 1 0 1 0 1
4
0.5332699724735518 0.46673002752644815 0.7712140301675013 0.22878596983249866
8
1 0 0 1 1 0 0 1
8
1 0 0 1 0 1 1 0
8
0 1 0 1 0 1 1 0
8
1 0 1 0 1 0 0 1
8
0.9439227562450957 0.05607724375490429 0.24026126249093338 0.7597387375090665 0.6641797566967749 0.33582024330322513 0.03390263606703119 0.9660973639329689
8
0 1 0 1 0 1 0 1
8
0 1 1 0 1 0 1 0
8
1 0 0 1 1 0 1 0
8
1 0 0 1 1 0 0 1
4
1 0 1 0
8
0 1 0 1 0 1 1 0
8
0 1 1 0 0 1 0 1
8
0 1 1 0 1 0 0 1
8
0 1 0 1 1 0 0 1
8
1 0 1 0 0 1 0 1
8
1 0 0 1 1 0 1 0
8
1 0 1 0 1 0 1 0
8
1 0 0 1 0 1 0 1
8
1 0 1 0 1 0 0 1
4
1 0 0 1
8
0 1 0 1 0 1 0 1
8
0 1 0 1 0 1 1 0
8
0 1 1 0 1 0 0 1
8
1 0 0 1 0 1 1 0
8
1 0 0 1 1 0 1 0
8
0 1 1 0 0 1 0 1
8
0.509343497203659 0.490656502796341 0.6038870534555508 0.3961129465444491 0.09648535221509723 0.9035146477849028 0.35372079160817554 0.6462792083918244
8
0 1 1 0 1 0 0 1
8
0.358981948556805 0.641018051443195 0.5378475622886028 0.4621524377113973 0.31852006581891334 0.6814799341810867 0.6633081255106079 0.33669187448939203
4
1 0 1 0
8
0 1 0 1 0 1 0 1
8
0 1 1 0 0 1 1 0
8
1 0 0 1 1 0 0 1
8
1 0 1 0 1 0 0 1
8
1 0 0 1 0 1 0 1
8
0 1 0 1 1 0 0 1
8
1 0 1 0 1 0 1 0
8
0 1 1 0 1 0 1 0
8
1 0 0 1 1 0 1 0
4
0 1 1 0
8
1 0 0 1 1 0 0 1
8
0.031186478795855392 0.9688135212041447 0.2204998871148985 0.7795001128851015 0.4887473171961451 0.5112526828038548 0.22300455031835287 0.776995449681647
8
1 0 1 0 0 1 0 1
8
1 0 0 1 1 0 1 0
8
0 1 1 0 1 0 1 0
8
0.33948121941934617 0.6605187805806538 0.2479075807252351 0.7520924192747649 0.40014616664187486 0.5998538333581253 0.5891548165550539 0.4108451834449462
8
1 0 0 1 0 1 0 1
8
0.7788942133129679 0.22110578668703215 0.8096653749377926 0.19033462506220744 0.50766943603529 0.4923305639647099 0.5271627690556998 0.47283723094430025
8
0 1 0 1 1 0 0 1
4
0 1 1 0
8
1 0 1 0 0 1 1 0
8
0 1 1 0 1 0 0 1
8
1 0 1 0 0 1 0 1
8
0 1 0 1 0 1 0 1
8
0 1 1 0 1 0 0 1
8
1 0 0 1 1 0 1 0
8
1 0 0 1 0 1 0 1
8
1 0 0 1 1 0 1 0
8
0 1 1 0 1 0 0 1
4
0 1 0 1
8
1 0 0 1 1 0 1 0
8
0 1 0 1 0 1 1 0
8
0 1 1 0 0 1 1 0
8
0 1 1 0 1 0 0 1
8
0 1 1 0 1 0 1 0
8
0 1 1 0 0 1 0 1
8
1 0 1 0 1 0 0 1
8
0 1 0 1 0 1 1 0
8
0 1 0 1 1 0 1 0
4
0 1 1 0
8
1 0 0 1 1 0 1 0
8
0.62405753681473 0.37594246318527 0.08181794714950975 0.9181820528504903 0.6455925909587994 0.3544074090412006 0.9155162205215712 0.08448377947842887
8
1 0 1 0 0 1 1 0
8
0.04940494011673654 0.9505950598832634 0.3669002981205521 0.633099701879448 0.7452252406977956 0.25477475930220445 0.9584772037933381 0.04152279620666188
8
0 1 1 0 1 0 0 1
8
0 1 1 0 1 0 0 1
8
1 0 0 1 0 1 1 0
8
0 1 0 1 1 0 0 1
8
0.5306273773319529 0.4693726226680471 0.02121182514581863 0.9787881748541813 0.5682569312620331 0.4317430687379668 0.32708524009676876 0.6729147599032312
